986237
190,137,14,29,4,155,219,63,43,222,210,144,136,143,25,21,116,19,183,160,204,214,74,33,49,27,107,34,86,228,111,154,132,62,0,6,35,93,101,39,168,26,80,77,129,61,54,150,191,36,178,115,195,90,88,106,95,165,100,8,67,5,102,186,11,89,149,185,170,169,141,128,152,216,20,3,227,87,108,145,202,32,223,157,37,103,171,203,167,92,212,57,138,220,24,123,84,122,130,60,181,131,79,51,58,44,211,229,1,114,81,148,179,76,40,140,105,218,98,189,201,215,174,53,104,55,17,91,52,99,65,23,127,221,120,147,172,180,187,166,78,192,83,28,118,205,217,208,69,85,113,9,200,197,199,13,109,7,119,96,193,164,133,47,12,175,16,224,46,110,18,226,124,45,213,163,64,153,173,196,10,142,75,56,94,194,135,125,72,112,41,159,97,121,50,225,176,198,177,30,126,146,42,38,206,156,73,70,139,66,134,82,161,71,209,182,31,117,48,162,188,184,59,15,207,2,158,22,68,151
